************************************************************************
file with basedata            : mm24_.bas
initial value random generator: 953051188
************************************************************************
projects                      :  1
jobs (incl. supersource/sink ):  12
horizon                       :  75
RESOURCES
  - renewable                 :  2   R
  - nonrenewable              :  2   N
  - doubly constrained        :  0   D
************************************************************************
PROJECT INFORMATION:
pronr.  #jobs rel.date duedate tardcost  MPM-Time
    1     10      0       14        9       14
************************************************************************
PRECEDENCE RELATIONS:
jobnr.    #modes  #successors   successors
   1        1          3           2   3   4
   2        3          1           6
   3        3          2           6   8
   4        3          3           5   6  11
   5        3          2           7   9
   6        3          2           9  10
   7        3          1          10
   8        3          1           9
   9        3          1          12
  10        3          1          12
  11        3          1          12
  12        1          0        
************************************************************************
REQUESTS/DURATIONS:
jobnr. mode duration  R 1  R 2  N 1  N 2
------------------------------------------------------------------------
  1      1     0       0    0    0    0
  2      1     6       7    0    5    7
         2     9       3    0    3    6
         3    10       0    9    2    4
  3      1     1       0    7    7    5
         2     3       0    7    6    5
         3     5       0    4    6    3
  4      1     6       0    1   10    8
         2     6       0    5    9    7
         3     9       9    0    3    7
  5      1     5       0    8    4    5
         2     9       9    0    3    4
         3    10       8    0    3    3
  6      1     3       5    0    9    3
         2     5       4    0    6    3
         3     7       4    0    3    1
  7      1     1       0    5    8    9
         2     3       0    5    6    6
         3     9       4    0    5    4
  8      1     2       8    0    4    7
         2     3       0    4    4    7
         3     5       0    3    4    6
  9      1     2       0    6    2   10
         2     3       0    5    2    8
         3     7       0    3    1    7
 10      1     2       6    0    7    2
         2     5       4    0    6    1
         3     6       0    7    5    1
 11      1     1      10    0    6    8
         2     6       0    8    4    8
         3     7       0    4    2    7
 12      1     0       0    0    0    0
************************************************************************
RESOURCEAVAILABILITIES:
  R 1  R 2  N 1  N 2
   18   19   62   64
************************************************************************
